5 5
4 1 4 4 1 1 6 2 4 18 3 12 4 2 11 4 18 5 5 1 20
8 3 1 17 4 11 2 17 1 4 7 2 2 9 4 2 2 3 13 1 7 1 4 6 4 4 11 5 2 1 5 2 4 3 4 2 2 20 5 20 5 2 13 4 3 3 15 1 2 5 9
4 4 5 14 2 19 1 13 3 17 2 2 6 5 7 5 1 6 4 14 2 10 5 2 3 19 2 4 10 2 3
7 5 1 6 2 13 3 7 4 6 5 13 3 1 12 5 16 4 10 2 4 12 3 16 3 5 16 4 2 2 13 3 4 6 3 3 5 4 2 5 11 3 18 4 2 6 1 9 3 17 5 11
8 3 3 10 2 20 1 12 2 3 4 1 6 2 2 14 3 13 3 4 20 5 6 1 6 1 4 6 5 1 11 4 19 3 6 5 19 2 20 2 1 17 4 19 2 5 17 4 7